;'^##0-8,9#%,%'^*$I#)h#&#$hh #h%'#h h #h') #/h'#'$h#') #$h #h'h*#h&h#h%'#^/h)#h 'h$&#$h&#^Gh)#'h#)h##)'hh"%h)hh)'$6)h"h'%hh#hh$#h"%h'*#^9#h)##h$&)h'^I#h#) ''$'h#"#)#h#h"#%h)h#h') #3#$h'h')'h#h'h$#h"#%h'*#^9h)##h##h') h$&)'$^OVRNSZKKNF+THNZMCROZTLOVRNSZKKNF+THN9<c`KG=FXW(&#+(-$+'*-+($$AɼKQKHPLKPQN<') #^##ͲV